120
150
44
23
21
74
29
36
97
88
84
53
74
74
58
38
98
42
94
33
67
63
62
88
51
94
23
79
56
56
97
47
77
53
44
29
72
53
83
97
74
94
42
86
25
66
56
94
53
66
81
93
90
45
56
57
59
36
43
25
47
67
63
90
74
59
24
74
66
46
79
66
51
24
98
64
39
94
47
56
64
87
62
97
70
42
38
80
53
24
35
90
43
73
20
20
45
78
66
36
34
69
47
88
88
81
21
62
58
59
53
43
38
39
36
32
59
91
77
44
29
25
